n_res = 4;
rc = [ 0, 0, 0, 0 ];
n_tasks = 30;
d = [ 5, 4, 6, 1, 4, 4, 8, 9, 5, 4, 3, 4, 2, 1, 10, 5, 9, 7, 10, 1, 4, 9, 8, 8, 10, 10, 1, 6, 1, 10 ];
rr = [| 0, 0, 0, 0, 0, 0, 0, 0, 0, 0, 0, 0, 0, 0, 0, 0, 0, 0, 0, 0, 0, 0, 0, 0, 0, 0, 0, 0, 0, 0
      | 0, 0, 0, 0, 0, 0, 0, 0, 0, 0, 0, 0, 0, 0, 0, 0, 0, 0, 0, 0, 0, 0, 0, 0, 0, 0, 0, 0, 0, 0
      | 0, 0, 0, 0, 0, 0, 0, 0, 0, 0, 0, 0, 0, 0, 0, 0, 0, 0, 0, 0, 0, 0, 0, 0, 0, 0, 0, 0, 0, 0
      | 0, 0, 0, 0, 0, 0, 0, 0, 0, 0, 0, 0, 0, 0, 0, 0, 0, 0, 0, 0, 0, 0, 0, 0, 0, 0, 0, 0, 0, 0 |];
suc = [ { 4, 6, 14 },
       { 20, 22, 24 },
       { 5, 12, 17 },
       { 8, 10, 17 },
       { 7, 10, 13 },
       { 9, 15, 22 },
       { 8, 16, 21 },
       { 15, 18, 28 },
       { 11, 17, 21 },
       { 15, 16, 21 },
       { 12, 13, 24 },
       { 18, 26 },
       { 18, 23 },
       { 19, 26, 29 },
       { 19 },
       { 22, 23, 27 },
       { 20, 23 },
       { 19, 29 },
       { 20, 27 },
       { 30 },
       { 24, 25 },
       { 25 },
       { 25, 26, 28 },
       { 27, 28 },
       { 29 },
       { 30 },
       { 30 },
       {  },
       {  },
       {  } ];
